; 
(set-info :status unknown)
(declare-fun node_0x7ffff1449060 () (_ BitVec 1))
(declare-fun node_0x7ffff1449840 () (_ BitVec 1))
(declare-fun node_0x7ffff144b020 () (_ BitVec 1))
(declare-fun node_0x7ffff144e270 () (_ BitVec 1))
(declare-fun node_0x7ffff144d590 () (_ BitVec 1))
(declare-fun node_0x7ffff1455c50 () (_ BitVec 1))
(declare-fun node_0x7ffff148c630 () (_ BitVec 32))
(declare-fun ieq_0x7ffff1490840 () (_ BitVec 1))
(declare-fun or_0x7ffff148e6b0 () (_ BitVec 1))
(declare-fun carg_node_0x7ffff1443b00 () (_ BitVec 64))
(declare-fun node_0x7ffff148c0d0 () (_ BitVec 64))
(declare-fun fogt_0x7ffff148e360 () (_ BitVec 1))
(declare-fun node_0x7ffff148e1c0 () (_ BitVec 1))
(declare-fun node_0x7ffff148dcd0 () (_ BitVec 1))
(declare-fun fule_0x7ffff148de50 () (_ BitVec 1))
(declare-fun node_0x7ffff148d890 () (_ BitVec 64))
(declare-fun select_0x7ffff148da30 () (_ BitVec 64))
(declare-fun node_0x7ffff148cf60 () (_ BitVec 64))
(declare-fun node_0x7ffff148a5e0 () (_ BitVec 64))
(declare-fun node_0x7ffff148d3a0 () (_ BitVec 1))
(declare-fun folt_0x7ffff148d520 () (_ BitVec 1))
(declare-fun fdiv_0x7ffff148a360 () (_ BitVec 64))
(declare-fun node_0x7ffff148a1c0 () (_ BitVec 64))
(declare-fun LdMem_0x7ffff1489e50 () (_ BitVec 64))
(declare-fun node_0x7ffff1489cd0 () (_ BitVec 64))
(declare-fun pcso_node_0x12a8ce50 () (_ BitVec 64))
(declare-fun StMem_0x12a8d000 () (_ BitVec 64))
(declare-fun R0x7ffff1443440 () (_ BitVec 1))
(declare-fun node_0x7ffff14891d0 () (_ BitVec 64))
(declare-fun fsub_0x7ffff1489370 () (_ BitVec 64))
(declare-fun LdMem_0x7ffff1480240 () (_ BitVec 64))
(declare-fun node_0x7ffff14881e0 () (_ BitVec 64))
(declare-fun node_0x7ffff1488d80 () (_ BitVec 64))
(declare-fun LdMem_0x7ffff1488f00 () (_ BitVec 64))
(declare-fun pcso_node_0x12a8a220 () (_ BitVec 64))
(declare-fun StMem_0x12a8a3d0 () (_ BitVec 64))
(declare-fun node_0x7ffff1484830 () (_ BitVec 64))
(declare-fun node_0x7ffff14483e0 () (_ BitVec 1))
(declare-fun node_0x7ffff1447850 () (_ BitVec 1))
(declare-fun fdiv_0x7ffff14849d0 () (_ BitVec 64))
(declare-fun LdMem_0x7ffff14844c0 () (_ BitVec 64))
(declare-fun node_0x7ffff1484340 () (_ BitVec 64))
(declare-fun pcso_node_0x12a814c0 () (_ BitVec 64))
(declare-fun StMem_0x12a81670 () (_ BitVec 64))
(declare-fun node_0x7ffff1483840 () (_ BitVec 64))
(declare-fun fsub_0x7ffff14839e0 () (_ BitVec 64))
(declare-fun LdMem_0x7ffff14829f0 () (_ BitVec 64))
(declare-fun node_0x7ffff1482850 () (_ BitVec 64))
(declare-fun node_0x7ffff14833f0 () (_ BitVec 64))
(declare-fun LdMem_0x7ffff1483570 () (_ BitVec 64))
(declare-fun pcso_node_0x12a7e890 () (_ BitVec 64))
(declare-fun StMem_0x12a7ea40 () (_ BitVec 64))
(declare-fun select_0x7ffff148d100 () (_ BitVec 64))
(declare-fun node_0x7ffff147f140 () (_ BitVec 64))
(declare-fun node_0x7ffff1474e20 () (_ BitVec 64))
(declare-fun node_0x7ffff148ca70 () (_ BitVec 1))
(declare-fun folt_0x7ffff148cbf0 () (_ BitVec 1))
(declare-fun fmul_0x7ffff147ef10 () (_ BitVec 64))
(declare-fun node_0x7ffff147ed70 () (_ BitVec 64))
(declare-fun node_0x7ffff147aea0 () (_ BitVec 64))
(declare-fun node_0x7ffff147e9a0 () (_ BitVec 64))
(declare-fun fsub_0x7ffff147eb40 () (_ BitVec 64))
(declare-fun LdMem_0x7ffff14754c0 () (_ BitVec 64))
(declare-fun node_0x7ffff147d9b0 () (_ BitVec 64))
(declare-fun node_0x7ffff147e550 () (_ BitVec 64))
(declare-fun LdMem_0x7ffff147e6d0 () (_ BitVec 64))
(declare-fun pcso_node_0x12a755f0 () (_ BitVec 64))
(declare-fun StMem_0x12a757a0 () (_ BitVec 64))
(declare-fun node_0x7ffff147a130 () (_ BitVec 64))
(declare-fun node_0x7ffff1446bd0 () (_ BitVec 1))
(declare-fun node_0x7ffff1446040 () (_ BitVec 1))
(declare-fun fmul_0x7ffff147a2d0 () (_ BitVec 64))
(declare-fun node_0x7ffff14763a0 () (_ BitVec 64))
(declare-fun node_0x7ffff1479d60 () (_ BitVec 64))
(declare-fun fsub_0x7ffff1479f00 () (_ BitVec 64))
(declare-fun LdMem_0x7ffff1478f60 () (_ BitVec 64))
(declare-fun node_0x7ffff1478dc0 () (_ BitVec 64))
(declare-fun node_0x7ffff1479960 () (_ BitVec 64))
(declare-fun LdMem_0x7ffff1479ae0 () (_ BitVec 64))
(declare-fun pcso_node_0x12a6f630 () (_ BitVec 64))
(declare-fun StMem_0x12a6f7e0 () (_ BitVec 64))
(declare-fun fmul_0x7ffff1474640 () (_ BitVec 64))
(declare-fun node_0x7ffff14744a0 () (_ BitVec 64))
(declare-fun node_0x7ffff1470cc0 () (_ BitVec 64))
(declare-fun node_0x7ffff14740d0 () (_ BitVec 64))
(declare-fun fsub_0x7ffff1474270 () (_ BitVec 64))
(declare-fun LdMem_0x7ffff146d200 () (_ BitVec 64))
(declare-fun node_0x7ffff14730e0 () (_ BitVec 64))
(declare-fun node_0x7ffff1473c80 () (_ BitVec 64))
(declare-fun LdMem_0x7ffff1473e00 () (_ BitVec 64))
(declare-fun pcso_node_0x12a69050 () (_ BitVec 64))
(declare-fun StMem_0x12a69230 () (_ BitVec 64))
(declare-fun node_0x7ffff146ff40 () (_ BitVec 64))
(declare-fun node_0x7ffff1445290 () (_ BitVec 1))
(declare-fun node_0x7ffff1444e70 () (_ BitVec 1))
(declare-fun fmul_0x7ffff14700e0 () (_ BitVec 64))
(declare-fun node_0x7ffff146c880 () (_ BitVec 64))
(declare-fun node_0x7ffff146fb70 () (_ BitVec 64))
(declare-fun fsub_0x7ffff146fd10 () (_ BitVec 64))
(declare-fun LdMem_0x7ffff146ed00 () (_ BitVec 64))
(declare-fun node_0x7ffff146eb80 () (_ BitVec 64))
(declare-fun node_0x7ffff146f720 () (_ BitVec 64))
(declare-fun LdMem_0x7ffff146f8a0 () (_ BitVec 64))
(declare-fun pcso_node_0x12a63090 () (_ BitVec 64))
(declare-fun StMem_0x12a63270 () (_ BitVec 64))
(declare-fun fogt_0x7ffff148ece0 () (_ BitVec 1))
(declare-fun carg_node_0x7ffff1443950 () (_ BitVec 64))
(declare-fun node_0x7ffff148b380 () (_ BitVec 64))
(declare-fun node_0x7ffff148a910 () (_ BitVec 64))
(declare-fun node_0x7ffff148bbe0 () (_ BitVec 1))
(declare-fun select_0x7ffff148c270 () (_ BitVec 64))
(declare-fun islt_0x7ffff148f300 () (_ BitVec 1))
(declare-fun ine_0x7ffff1491cc0 () (_ BitVec 1))
(declare-fun node_0x7ffff148ac00 () (_ BitVec 32))
(declare-fun node_0x7ffff146b6d0 () (_ BitVec 64))
(declare-fun folt_0x7ffff1484c50 () (_ BitVec 1))
(declare-fun fogt_0x7ffff147fa50 () (_ BitVec 1))
(declare-fun LdMem_0x7ffff146b850 () (_ BitVec 64))
(declare-fun pcso_node_0x12a57ae0 () (_ BitVec 64))
(declare-fun StMem_0x12a57c90 () (_ BitVec 64))
(declare-fun ieq_0x7ffff1490bc0 () (_ BitVec 1))
(declare-fun select_0x7ffff148c7d0 () (_ BitVec 32))
(declare-fun node_0x7ffff148aef0 () (_ BitVec 1))
(declare-fun select_0x7ffff148b940 () (_ BitVec 32))
(declare-fun node_0x7ffff148b7c0 () (_ BitVec 32))
(declare-fun fogt_0x7ffff148bd60 () (_ BitVec 1))
(declare-fun fdiv_0x7ffff1487b60 () (_ BitVec 64))
(declare-fun node_0x7ffff14879c0 () (_ BitVec 64))
(declare-fun LdMem_0x7ffff1487650 () (_ BitVec 64))
(declare-fun node_0x7ffff14874d0 () (_ BitVec 64))
(declare-fun pcso_node_0x12a87240 () (_ BitVec 64))
(declare-fun StMem_0x12a873f0 () (_ BitVec 64))
(declare-fun node_0x7ffff14868c0 () (_ BitVec 64))
(declare-fun fsub_0x7ffff1486a60 () (_ BitVec 64))
(declare-fun LdMem_0x7ffff14865f0 () (_ BitVec 64))
(declare-fun node_0x7ffff1486470 () (_ BitVec 64))
(declare-fun pcso_node_0x12a844a0 () (_ BitVec 64))
(declare-fun StMem_0x12a84650 () (_ BitVec 64))
(declare-fun node_0x7ffff1485920 () (_ BitVec 64))
(declare-fun pcso_node_0x12a5d2d0 () (_ BitVec 64))
(declare-fun StMem_0x12a5d480 () (_ BitVec 64))
(declare-fun node_0x7ffff1482030 () (_ BitVec 64))
(declare-fun fdiv_0x7ffff14821d0 () (_ BitVec 64))
(declare-fun LdMem_0x7ffff1481cc0 () (_ BitVec 64))
(declare-fun node_0x7ffff1481b40 () (_ BitVec 64))
(declare-fun pcso_node_0x12a7b780 () (_ BitVec 64))
(declare-fun StMem_0x12a7b930 () (_ BitVec 64))
(declare-fun node_0x7ffff1481040 () (_ BitVec 64))
(declare-fun fsub_0x7ffff14811e0 () (_ BitVec 64))
(declare-fun LdMem_0x7ffff1480d70 () (_ BitVec 64))
(declare-fun node_0x7ffff1480bf0 () (_ BitVec 64))
(declare-fun pcso_node_0x12a78b50 () (_ BitVec 64))
(declare-fun StMem_0x12a78d00 () (_ BitVec 64))
(declare-fun node_0x7ffff14800a0 () (_ BitVec 64))
(declare-fun pcso_node_0x12a5aa40 () (_ BitVec 64))
(declare-fun StMem_0x12a5abf0 () (_ BitVec 64))
(declare-fun select_0x7ffff148b520 () (_ BitVec 64))
(declare-fun node_0x7ffff147f470 () (_ BitVec 64))
(declare-fun node_0x7ffff14757a0 () (_ BitVec 64))
(declare-fun fogt_0x7ffff148b050 () (_ BitVec 1))
(declare-fun fmul_0x7ffff1466690 () (_ BitVec 64))
(declare-fun node_0x7ffff14664f0 () (_ BitVec 64))
(declare-fun fdiv_0x7ffff147b010 () (_ BitVec 64))
(declare-fun node_0x7ffff146ab20 () (_ BitVec 64))
(declare-fun node_0x7ffff147c610 () (_ BitVec 64))
(declare-fun fsub_0x7ffff14662c0 () (_ BitVec 64))
(declare-fun LdMem_0x7ffff147c340 () (_ BitVec 64))
(declare-fun node_0x7ffff147c1c0 () (_ BitVec 64))
(declare-fun pcso_node_0x12a72610 () (_ BitVec 64))
(declare-fun StMem_0x12a727c0 () (_ BitVec 64))
(declare-fun node_0x7ffff147b670 () (_ BitVec 64))
(declare-fun pcso_node_0x12a5ce80 () (_ BitVec 64))
(declare-fun StMem_0x12a5d030 () (_ BitVec 64))
(declare-fun node_0x7ffff14785d0 () (_ BitVec 64))
(declare-fun folt_0x7ffff147a500 () (_ BitVec 1))
(declare-fun fogt_0x7ffff1475f20 () (_ BitVec 1))
(declare-fun LdMem_0x7ffff146aca0 () (_ BitVec 64))
(declare-fun pcso_node_0x12a55260 () (_ BitVec 64))
(declare-fun StMem_0x12a55410 () (_ BitVec 64))
(declare-fun fmul_0x7ffff1478770 () (_ BitVec 64))
(declare-fun fdiv_0x7ffff1476d20 () (_ BitVec 64))
(declare-fun node_0x7ffff1478200 () (_ BitVec 64))
(declare-fun fsub_0x7ffff14783a0 () (_ BitVec 64))
(declare-fun LdMem_0x7ffff1477f30 () (_ BitVec 64))
(declare-fun node_0x7ffff1477db0 () (_ BitVec 64))
(declare-fun pcso_node_0x12a6c570 () (_ BitVec 64))
(declare-fun StMem_0x12a6c720 () (_ BitVec 64))
(declare-fun node_0x7ffff1477350 () (_ BitVec 64))
(declare-fun pcso_node_0x12a5a5f0 () (_ BitVec 64))
(declare-fun StMem_0x12a5a7a0 () (_ BitVec 64))
(declare-fun fmul_0x7ffff1472ab0 () (_ BitVec 64))
(declare-fun node_0x7ffff1472910 () (_ BitVec 64))
(declare-fun fdiv_0x7ffff1470e30 () (_ BitVec 64))
(declare-fun node_0x7ffff1469fe0 () (_ BitVec 64))
(declare-fun node_0x7ffff1472540 () (_ BitVec 64))
(declare-fun fsub_0x7ffff14726e0 () (_ BitVec 64))
(declare-fun LdMem_0x7ffff1472270 () (_ BitVec 64))
(declare-fun node_0x7ffff14720f0 () (_ BitVec 64))
(declare-fun pcso_node_0x12a66070 () (_ BitVec 64))
(declare-fun StMem_0x12a66250 () (_ BitVec 64))
(declare-fun node_0x7ffff1471490 () (_ BitVec 64))
(declare-fun pcso_node_0x12a5ca80 () (_ BitVec 64))
(declare-fun StMem_0x12a5cc60 () (_ BitVec 64))
(declare-fun node_0x7ffff146e380 () (_ BitVec 64))
(declare-fun folt_0x7ffff14705a0 () (_ BitVec 1))
(declare-fun fogt_0x7ffff146c340 () (_ BitVec 1))
(declare-fun LdMem_0x7ffff146a160 () (_ BitVec 64))
(declare-fun pcso_node_0x12a52ff0 () (_ BitVec 64))
(declare-fun StMem_0x12a531d0 () (_ BitVec 64))
(declare-fun fmul_0x7ffff146e520 () (_ BitVec 64))
(declare-fun fdiv_0x7ffff146c9f0 () (_ BitVec 64))
(declare-fun node_0x7ffff146dfb0 () (_ BitVec 64))
(declare-fun fsub_0x7ffff146e150 () (_ BitVec 64))
(declare-fun LdMem_0x7ffff146dd30 () (_ BitVec 64))
(declare-fun node_0x7ffff146dbb0 () (_ BitVec 64))
(declare-fun pcso_node_0x12a5ffb0 () (_ BitVec 64))
(declare-fun StMem_0x12a60190 () (_ BitVec 64))
(declare-fun node_0x7ffff146d080 () (_ BitVec 64))
(declare-fun pcso_node_0x12a5a1f0 () (_ BitVec 64))
(declare-fun StMem_0x12a5a3d0 () (_ BitVec 64))
(declare-fun node_0x12a56ef0 () (_ BitVec 64))
(declare-fun parg_node_0x107b61b0_CS0x406d048 () (_ BitVec 64))
(declare-fun LdMem_0x12a56cc0 () (_ BitVec 64))
(declare-fun parg_node_0x12a52970 () (_ BitVec 64))
(declare-fun StMem_0x12a527c0 () (_ BitVec 64))
(declare-fun node_0x107b7d30_CS0x406d048 () (_ BitVec 64))
(declare-fun node_0x12a59e80 () (_ BitVec 64))
(declare-fun parg_node_0x12a4df10_CS0x406d548 () (_ BitVec 64))
(declare-fun LdMem_0x12a59830 () (_ BitVec 64))
(declare-fun parg_node_0x12a59b50 () (_ BitVec 64))
(declare-fun StMem_0x12a599a0 () (_ BitVec 64))
(declare-fun node_0x12a4fab0_CS0x406d548 () (_ BitVec 64))
(declare-fun node_0x12a77f30 () (_ BitVec 64))
(declare-fun parg_node_0x107ae730_CS0x4072bc8 () (_ BitVec 64))
(declare-fun LdMem_0x12a77bc0 () (_ BitVec 64))
(declare-fun parg_node_0x12a5f7d0 () (_ BitVec 64))
(declare-fun StMem_0x12a5f620 () (_ BitVec 64))
(declare-fun node_0x107b0280_CS0x4072bc8 () (_ BitVec 64))
(declare-fun node_0x12a7ab60 () (_ BitVec 64))
(declare-fun parg_node_0x107b61b0_CS0x4072e38 () (_ BitVec 64))
(declare-fun LdMem_0x12a7a7f0 () (_ BitVec 64))
(declare-fun node_0x107b7d30_CS0x4072e38 () (_ BitVec 64))
(declare-fun node_0x12a5c710 () (_ BitVec 64))
(declare-fun parg_node_0x12a497d0_CS0x406d7b8 () (_ BitVec 64))
(declare-fun LdMem_0x12a5c060 () (_ BitVec 64))
(declare-fun parg_node_0x12a5c380 () (_ BitVec 64))
(declare-fun StMem_0x12a5c1d0 () (_ BitVec 64))
(declare-fun node_0x12a4b3d0_CS0x406d7b8 () (_ BitVec 64))
(declare-fun node_0x12a83880 () (_ BitVec 64))
(declare-fun parg_node_0x107ae730_CS0x4074038 () (_ BitVec 64))
(declare-fun LdMem_0x12a83510 () (_ BitVec 64))
(declare-fun node_0x107b0280_CS0x4074038 () (_ BitVec 64))
(declare-fun carg_node_0x7ffff1443e00 () (_ BitVec 64))
(assert
 (let (($x275 (= node_0x7ffff1449060 (_ bv1 1))))
 (let (($x207 (not $x275)))
 (let (($x236 (= node_0x7ffff1449840 (_ bv1 1))))
 (let (($x814 (and $x236 $x207)))
 (let (($x261 (= node_0x7ffff144b020 (_ bv1 1))))
 (let (($x292 (not $x261)))
 (let (($x506 (and $x292 $x814)))
 (let (($x540 (or (and (not (= node_0x7ffff144d590 (_ bv1 1))) (and $x261 $x814)) (and (not (= node_0x7ffff144e270 (_ bv1 1))) $x506))))
 (let (($x1223 (= node_0x7ffff1455c50 (_ bv1 1))))
 (and $x1223 $x540)))))))))))
(assert
 (let (($x843 (= node_0x7ffff148c630 (_ bv0 32))))
 (let ((?x844 (ite $x843 (_ bv1 1) (_ bv0 1))))
 (let (($x845 (= ieq_0x7ffff1490840 ?x844)))
 (let (($x458 (= node_0x7ffff144d590 ieq_0x7ffff1490840)))
 (let (($x753 (= node_0x7ffff1449060 or_0x7ffff148e6b0)))
 (let (($x813 (= fogt_0x7ffff148e360 (ite (bvsgt node_0x7ffff148c0d0 carg_node_0x7ffff1443b00) (_ bv1 1) (_ bv0 1)))))
 (let (($x342733 (= node_0x7ffff148e1c0 fogt_0x7ffff148e360)))
 (let ((?x238 (bvor node_0x7ffff148dcd0 node_0x7ffff148e1c0)))
 (let (($x268 (= or_0x7ffff148e6b0 ?x238)))
 (let (($x46 (= node_0x7ffff148dcd0 fule_0x7ffff148de50)))
 (let (($x250 (bvsle node_0x7ffff148d890 node_0x7ffff148c0d0)))
 (let ((?x266 (ite $x250 (_ bv1 1) (_ bv0 1))))
 (let (($x267 (= fule_0x7ffff148de50 ?x266)))
 (let (($x700 (= node_0x7ffff148d890 select_0x7ffff148da30)))
 (let (($x277 (= node_0x7ffff148d3a0 (_ bv1 1))))
 (let ((?x278 (ite $x277 node_0x7ffff148a5e0 node_0x7ffff148cf60)))
 (let (($x279 (= select_0x7ffff148da30 ?x278)))
 (let (($x588 (= node_0x7ffff148d3a0 folt_0x7ffff148d520)))
 (let (($x284 (= folt_0x7ffff148d520 (ite (bvslt node_0x7ffff148a5e0 node_0x7ffff148cf60) (_ bv1 1) (_ bv0 1)))))
 (let (($x846 (= node_0x7ffff148a1c0 fdiv_0x7ffff148a360)))
 (let (($x1205 (= node_0x7ffff1489cd0 LdMem_0x7ffff1489e50)))
 (let (($x975 (= LdMem_0x7ffff1489e50 StMem_0x12a8d000)))
 (let (($x350 (= node_0x7ffff1489cd0 (_ bv0 64))))
 (let (($x349 (= node_0x7ffff14891d0 (_ bv0 64))))
 (let (($x351 (or $x349 $x350)))
 (let (($x348 (= fdiv_0x7ffff148a360 (bvsdiv node_0x7ffff14891d0 node_0x7ffff1489cd0))))
 (let (($x354 (and $x348 (or $x351 (and (distinct fdiv_0x7ffff148a360 (_ bv0 64)) true)))))
 (let (($x1143 (= node_0x7ffff14891d0 fsub_0x7ffff1489370)))
 (let (($x1197 (= node_0x7ffff14881e0 LdMem_0x7ffff1480240)))
 (let (($x360 (= fsub_0x7ffff1489370 (bvsub node_0x7ffff14881e0 node_0x7ffff1488d80))))
 (let (($x1139 (= node_0x7ffff1488d80 LdMem_0x7ffff1488f00)))
 (let (($x118 (= LdMem_0x7ffff1488f00 StMem_0x12a8a3d0)))
 (let (($x726 (= node_0x7ffff148a5e0 (_ bv0 64))))
 (let (($x42 (= node_0x7ffff148a5e0 node_0x7ffff148a1c0)))
 (let (($x1217 (= node_0x7ffff148a5e0 node_0x7ffff1484830)))
 (let (($x253 (= node_0x7ffff14483e0 (_ bv1 1))))
 (let (($x972 (not $x253)))
 (let (($x240 (= node_0x7ffff1447850 (_ bv1 1))))
 (let (($x246 (not $x240)))
 (let (($x892 (not (and $x246 $x972))))
 (let (($x918 (or $x246 $x1217)))
 (let (($x1091 (= node_0x7ffff1484830 fdiv_0x7ffff14849d0)))
 (let (($x1218 (= node_0x7ffff1484340 LdMem_0x7ffff14844c0)))
 (let (($x952 (= LdMem_0x7ffff14844c0 StMem_0x12a81670)))
 (let (($x314 (or (or (= node_0x7ffff1483840 (_ bv0 64)) (= node_0x7ffff1484340 (_ bv0 64))) (and (distinct fdiv_0x7ffff14849d0 (_ bv0 64)) true))))
 (let (($x309 (= fdiv_0x7ffff14849d0 (bvsdiv node_0x7ffff1483840 node_0x7ffff1484340))))
 (let (($x315 (and $x309 $x314)))
 (let (($x109 (= node_0x7ffff1483840 fsub_0x7ffff14839e0)))
 (let (($x153 (= node_0x7ffff1482850 LdMem_0x7ffff14829f0)))
 (let (($x321 (= fsub_0x7ffff14839e0 (bvsub node_0x7ffff1482850 node_0x7ffff14833f0))))
 (let (($x1044 (= node_0x7ffff14833f0 LdMem_0x7ffff1483570)))
 (let (($x954 (= LdMem_0x7ffff1483570 StMem_0x12a7ea40)))
 (let (($x982 (= node_0x7ffff148cf60 select_0x7ffff148d100)))
 (let (($x387 (= node_0x7ffff148ca70 (_ bv1 1))))
 (let ((?x388 (ite $x387 node_0x7ffff1474e20 node_0x7ffff147f140)))
 (let (($x389 (= select_0x7ffff148d100 ?x388)))
 (let (($x499 (= node_0x7ffff148ca70 folt_0x7ffff148cbf0)))
 (let (($x800 (= node_0x7ffff147ed70 fmul_0x7ffff147ef10)))
 (let (($x565 (or (or (= node_0x7ffff147e9a0 (_ bv0 64)) (= node_0x7ffff147aea0 (_ bv0 64))) (and (distinct fmul_0x7ffff147ef10 (_ bv0 64)) true))))
 (let (($x560 (= fmul_0x7ffff147ef10 (bvmul node_0x7ffff147e9a0 node_0x7ffff147aea0))))
 (let (($x566 (and $x560 $x565)))
 (let (($x110 (= node_0x7ffff147e9a0 fsub_0x7ffff147eb40)))
 (let (($x1208 (= node_0x7ffff147d9b0 LdMem_0x7ffff14754c0)))
 (let (($x572 (= fsub_0x7ffff147eb40 (bvsub node_0x7ffff147d9b0 node_0x7ffff147e550))))
 (let (($x435 (= node_0x7ffff147e550 LdMem_0x7ffff147e6d0)))
 (let (($x1236 (= LdMem_0x7ffff147e6d0 StMem_0x12a757a0)))
 (let (($x1220 (= node_0x7ffff147f140 (_ bv0 64))))
 (let (($x1244 (= node_0x7ffff147f140 node_0x7ffff147ed70)))
 (let (($x934 (= node_0x7ffff147f140 node_0x7ffff147a130)))
 (let (($x228 (= node_0x7ffff1446bd0 (_ bv1 1))))
 (let (($x74 (not $x228)))
 (let (($x218 (= node_0x7ffff1446040 (_ bv1 1))))
 (let (($x229 (not $x218)))
 (let (($x1179 (not (and $x229 $x74))))
 (let (($x910 (or $x229 $x934)))
 (let (($x1127 (= node_0x7ffff147a130 fmul_0x7ffff147a2d0)))
 (let (($x524 (or (or (= node_0x7ffff1479d60 (_ bv0 64)) (= node_0x7ffff14763a0 (_ bv0 64))) (and (distinct fmul_0x7ffff147a2d0 (_ bv0 64)) true))))
 (let ((?x518 (bvmul node_0x7ffff1479d60 node_0x7ffff14763a0)))
 (let (($x525 (and (= fmul_0x7ffff147a2d0 ?x518) $x524)))
 (let (($x1203 (= node_0x7ffff1479d60 fsub_0x7ffff1479f00)))
 (let (($x925 (= node_0x7ffff1478dc0 LdMem_0x7ffff1478f60)))
 (let (($x531 (= fsub_0x7ffff1479f00 (bvsub node_0x7ffff1478dc0 node_0x7ffff1479960))))
 (let (($x998 (= node_0x7ffff1479960 LdMem_0x7ffff1479ae0)))
 (let (($x878 (= LdMem_0x7ffff1479ae0 StMem_0x12a6f7e0)))
 (let (($x394 (= folt_0x7ffff148cbf0 (ite (bvslt node_0x7ffff1474e20 node_0x7ffff147f140) (_ bv1 1) (_ bv0 1)))))
 (let (($x342730 (= node_0x7ffff14744a0 fmul_0x7ffff1474640)))
 (let (($x464 (= node_0x7ffff1470cc0 (_ bv0 64))))
 (let (($x463 (= node_0x7ffff14740d0 (_ bv0 64))))
 (let (($x465 (or $x463 $x464)))
 (let (($x462 (= fmul_0x7ffff1474640 (bvmul node_0x7ffff14740d0 node_0x7ffff1470cc0))))
 (let (($x468 (and $x462 (or $x465 (and (distinct fmul_0x7ffff1474640 (_ bv0 64)) true)))))
 (let (($x1254 (= node_0x7ffff14740d0 fsub_0x7ffff1474270)))
 (let (($x886 (= node_0x7ffff14730e0 LdMem_0x7ffff146d200)))
 (let (($x474 (= fsub_0x7ffff1474270 (bvsub node_0x7ffff14730e0 node_0x7ffff1473c80))))
 (let (($x1027 (= node_0x7ffff1473c80 LdMem_0x7ffff1473e00)))
 (let (($x1188 (= LdMem_0x7ffff1473e00 StMem_0x12a69230)))
 (let (($x1173 (= node_0x7ffff1474e20 (_ bv0 64))))
 (let (($x947 (= node_0x7ffff1474e20 node_0x7ffff14744a0)))
 (let (($x130 (= node_0x7ffff1474e20 node_0x7ffff146ff40)))
 (let (($x988 (or $x130 $x947 $x1173)))
 (let (($x197 (= node_0x7ffff1445290 (_ bv1 1))))
 (let (($x986 (not $x197)))
 (let (($x168 (= node_0x7ffff1444e70 (_ bv1 1))))
 (let (($x191 (not $x168)))
 (let (($x1259 (not (and $x191 $x986))))
 (let (($x101 (or $x191 $x130)))
 (let (($x49 (= node_0x7ffff146ff40 fmul_0x7ffff14700e0)))
 (let (($x421 (= node_0x7ffff146c880 (_ bv0 64))))
 (let (($x420 (= node_0x7ffff146fb70 (_ bv0 64))))
 (let (($x422 (or $x420 $x421)))
 (let ((?x418 (bvmul node_0x7ffff146fb70 node_0x7ffff146c880)))
 (let (($x419 (= fmul_0x7ffff14700e0 ?x418)))
 (let (($x425 (and $x419 (or $x422 (and (distinct fmul_0x7ffff14700e0 (_ bv0 64)) true)))))
 (let (($x262 (= node_0x7ffff146fb70 fsub_0x7ffff146fd10)))
 (let (($x901 (= node_0x7ffff146eb80 LdMem_0x7ffff146ed00)))
 (let (($x431 (= fsub_0x7ffff146fd10 (bvsub node_0x7ffff146eb80 node_0x7ffff146f720))))
 (let (($x1243 (= node_0x7ffff146f720 LdMem_0x7ffff146f8a0)))
 (let (($x960 (= LdMem_0x7ffff146f8a0 StMem_0x12a63270)))
 (let (($x991 (= node_0x7ffff1449840 fogt_0x7ffff148ece0)))
 (let (($x820 (= fogt_0x7ffff148ece0 (ite (bvsgt node_0x7ffff148c0d0 carg_node_0x7ffff1443950) (_ bv1 1) (_ bv0 1)))))
 (let (($x598 (= node_0x7ffff148bbe0 (_ bv1 1))))
 (let ((?x599 (ite $x598 node_0x7ffff148a910 node_0x7ffff148b380)))
 (let (($x600 (= select_0x7ffff148c270 ?x599)))
 (let (($x438 (= node_0x7ffff148c0d0 select_0x7ffff148c270)))
 (let ((?x827 (ite (bvslt node_0x7ffff148c630 (_ bv1 32)) (_ bv1 1) (_ bv0 1))))
 (let (($x828 (= islt_0x7ffff148f300 ?x827)))
 (let (($x1237 (= node_0x7ffff144b020 islt_0x7ffff148f300)))
 (let ((?x1101 (ite (and (distinct node_0x7ffff148ac00 (_ bv0 32)) true) (_ bv1 1) (_ bv0 1))))
 (let (($x91 (= ine_0x7ffff1491cc0 ?x1101)))
 (let (($x291 (= node_0x7ffff148ac00 (_ bv0 32))))
 (let (($x76 (= node_0x7ffff148ac00 (_ bv1 32))))
 (let (($x214 (= folt_0x7ffff1484c50 (ite (bvslt node_0x7ffff146b6d0 (_ bv0 64)) (_ bv1 1) (_ bv0 1)))))
 (let (($x865 (= node_0x7ffff14483e0 folt_0x7ffff1484c50)))
 (let (($x1140 (or $x246 $x76)))
 (let (($x342744 (= node_0x7ffff1447850 fogt_0x7ffff147fa50)))
 (let (($x234 (= fogt_0x7ffff147fa50 (ite (bvsgt node_0x7ffff146b6d0 (_ bv0 64)) (_ bv1 1) (_ bv0 1)))))
 (let (($x1013 (= node_0x7ffff146b6d0 LdMem_0x7ffff146b850)))
 (let (($x1099 (= LdMem_0x7ffff146b850 StMem_0x12a57c90)))
 (let (($x938 (= node_0x7ffff144e270 ieq_0x7ffff1490bc0)))
 (let (($x302 (= node_0x7ffff148c630 (_ bv1 32))))
 (let ((?x362 (ite $x302 (_ bv1 1) (_ bv0 1))))
 (let (($x855 (= ieq_0x7ffff1490bc0 ?x362)))
 (let (($x1142 (= node_0x7ffff148c630 select_0x7ffff148c7d0)))
 (let (($x686 (= node_0x7ffff148aef0 (_ bv1 1))))
 (let ((?x838 (ite $x686 (_ bv0 32) (_ bv1 32))))
 (let (($x839 (= select_0x7ffff148b940 ?x838)))
 (let (($x902 (= node_0x7ffff148b7c0 select_0x7ffff148b940)))
 (let ((?x833 (ite $x598 (_ bv2 32) node_0x7ffff148b7c0)))
 (let (($x834 (= select_0x7ffff148c7d0 ?x833)))
 (let (($x151 (= node_0x7ffff148bbe0 fogt_0x7ffff148bd60)))
 (let (($x605 (= fogt_0x7ffff148bd60 (ite (bvsgt node_0x7ffff148a910 node_0x7ffff148b380) (_ bv1 1) (_ bv0 1)))))
 (let (($x1191 (= node_0x7ffff14879c0 fdiv_0x7ffff1487b60)))
 (let (($x105 (= node_0x7ffff14874d0 LdMem_0x7ffff1487650)))
 (let (($x112 (= LdMem_0x7ffff1487650 StMem_0x12a873f0)))
 (let (($x658 (or (or (= node_0x7ffff14868c0 (_ bv0 64)) (= node_0x7ffff14874d0 (_ bv0 64))) (and (distinct fdiv_0x7ffff1487b60 (_ bv0 64)) true))))
 (let (($x653 (= fdiv_0x7ffff1487b60 (bvsdiv node_0x7ffff14868c0 node_0x7ffff14874d0))))
 (let (($x659 (and $x653 $x658)))
 (let (($x882 (= node_0x7ffff14868c0 fsub_0x7ffff1486a60)))
 (let (($x883 (= node_0x7ffff1486470 LdMem_0x7ffff14865f0)))
 (let (($x976 (= LdMem_0x7ffff14865f0 StMem_0x12a84650)))
 (let (($x665 (= fsub_0x7ffff1486a60 (bvsub node_0x7ffff1485920 node_0x7ffff1486470))))
 (let (($x411 (= StMem_0x12a5d480 pcso_node_0x12a5d2d0)))
 (let (($x1096 (= LdMem_0x7ffff14829f0 StMem_0x12a5d480)))
 (let (($x581 (= node_0x7ffff148a910 (_ bv0 64))))
 (let (($x121 (= node_0x7ffff148a910 node_0x7ffff14879c0)))
 (let (($x131 (= node_0x7ffff148a910 node_0x7ffff1482030)))
 (let (($x1267 (or $x246 $x131)))
 (let (($x1246 (= node_0x7ffff1482030 fdiv_0x7ffff14821d0)))
 (let (($x1014 (= node_0x7ffff1481b40 LdMem_0x7ffff1481cc0)))
 (let (($x1200 (= LdMem_0x7ffff1481cc0 StMem_0x12a7b930)))
 (let (($x625 (or (or (= node_0x7ffff1481040 (_ bv0 64)) (= node_0x7ffff1481b40 (_ bv0 64))) (and (distinct fdiv_0x7ffff14821d0 (_ bv0 64)) true))))
 (let (($x620 (= fdiv_0x7ffff14821d0 (bvsdiv node_0x7ffff1481040 node_0x7ffff1481b40))))
 (let (($x626 (and $x620 $x625)))
 (let (($x974 (= node_0x7ffff1481040 fsub_0x7ffff14811e0)))
 (let (($x44 (= node_0x7ffff1480bf0 LdMem_0x7ffff1480d70)))
 (let (($x1183 (= LdMem_0x7ffff1480d70 StMem_0x12a78d00)))
 (let (($x632 (= fsub_0x7ffff14811e0 (bvsub node_0x7ffff14800a0 node_0x7ffff1480bf0))))
 (let (($x1211 (= LdMem_0x7ffff1480240 StMem_0x12a5abf0)))
 (let (($x1084 (= node_0x7ffff148b380 select_0x7ffff148b520)))
 (let ((?x687 (ite $x686 node_0x7ffff14757a0 node_0x7ffff147f470)))
 (let (($x688 (= select_0x7ffff148b520 ?x687)))
 (let (($x847 (= node_0x7ffff148aef0 fogt_0x7ffff148b050)))
 (let (($x1102 (= node_0x7ffff14664f0 fmul_0x7ffff1466690)))
 (let (($x550 (= node_0x7ffff146ab20 (_ bv0 64))))
 (let (($x451 (= (_ bv1 64) (_ bv0 64))))
 (let (($x551 (or $x451 $x550)))
 (let (($x592 (and (= fdiv_0x7ffff147b010 (bvsdiv (_ bv1 64) node_0x7ffff146ab20)) (or $x551 (and (distinct fdiv_0x7ffff147b010 (_ bv0 64)) true)))))
 (let (($x792 (or (or (= node_0x7ffff147c610 (_ bv0 64)) (= node_0x7ffff147aea0 (_ bv0 64))) (and (distinct fmul_0x7ffff1466690 (_ bv0 64)) true))))
 (let (($x788 (= fmul_0x7ffff1466690 (bvmul node_0x7ffff147c610 node_0x7ffff147aea0))))
 (let (($x793 (and $x788 $x792)))
 (let (($x136 (= node_0x7ffff147c610 fsub_0x7ffff14662c0)))
 (let (($x1113 (= node_0x7ffff147c1c0 LdMem_0x7ffff147c340)))
 (let (($x54 (= LdMem_0x7ffff147c340 StMem_0x12a727c0)))
 (let (($x799 (= fsub_0x7ffff14662c0 (bvsub node_0x7ffff147b670 node_0x7ffff147c1c0))))
 (let (($x269 (= LdMem_0x7ffff1478f60 StMem_0x12a5d030)))
 (let (($x442 (= node_0x7ffff147f470 (_ bv0 64))))
 (let (($x501 (= node_0x7ffff147f470 node_0x7ffff14664f0)))
 (let (($x1124 (= node_0x7ffff147f470 node_0x7ffff14785d0)))
 (let (($x224 (= folt_0x7ffff147a500 (ite (bvslt node_0x7ffff146ab20 (_ bv0 64)) (_ bv1 1) (_ bv0 1)))))
 (let (($x538 (= node_0x7ffff1446bd0 folt_0x7ffff147a500)))
 (let (($x139 (or $x229 $x1124)))
 (let (($x944 (= node_0x7ffff1446040 fogt_0x7ffff1475f20)))
 (let (($x203 (= fogt_0x7ffff1475f20 (ite (bvsgt node_0x7ffff146ab20 (_ bv0 64)) (_ bv1 1) (_ bv0 1)))))
 (let (($x365 (= node_0x7ffff146ab20 LdMem_0x7ffff146aca0)))
 (let (($x1232 (= LdMem_0x7ffff146aca0 StMem_0x12a55410)))
 (let (($x757 (= node_0x7ffff14785d0 fmul_0x7ffff1478770)))
 (let (($x554 (and (= fdiv_0x7ffff1476d20 (bvsdiv (_ bv1 64) node_0x7ffff146ab20)) (or $x551 (and (distinct fdiv_0x7ffff1476d20 (_ bv0 64)) true)))))
 (let (($x978 (= node_0x7ffff14763a0 fdiv_0x7ffff1476d20)))
 (let (($x768 (or (or (= node_0x7ffff1478200 (_ bv0 64)) (= node_0x7ffff14763a0 (_ bv0 64))) (and (distinct fmul_0x7ffff1478770 (_ bv0 64)) true))))
 (let (($x764 (= fmul_0x7ffff1478770 (bvmul node_0x7ffff1478200 node_0x7ffff14763a0))))
 (let (($x769 (and $x764 $x768)))
 (let (($x1184 (= node_0x7ffff1478200 fsub_0x7ffff14783a0)))
 (let (($x395 (= node_0x7ffff1477db0 LdMem_0x7ffff1477f30)))
 (let (($x1242 (= LdMem_0x7ffff1477f30 StMem_0x12a6c720)))
 (let (($x775 (= fsub_0x7ffff14783a0 (bvsub node_0x7ffff1477350 node_0x7ffff1477db0))))
 (let (($x671 (= LdMem_0x7ffff14754c0 StMem_0x12a5a7a0)))
 (let (($x693 (= fogt_0x7ffff148b050 (ite (bvsgt node_0x7ffff14757a0 node_0x7ffff147f470) (_ bv1 1) (_ bv0 1)))))
 (let (($x611 (= node_0x7ffff1472910 fmul_0x7ffff1472ab0)))
 (let (($x452 (= node_0x7ffff1469fe0 (_ bv0 64))))
 (let (($x453 (or $x451 $x452)))
 (let (($x494 (and (= fdiv_0x7ffff1470e30 (bvsdiv (_ bv1 64) node_0x7ffff1469fe0)) (or $x453 (and (distinct fdiv_0x7ffff1470e30 (_ bv0 64)) true)))))
 (let (($x735 (or (or (= node_0x7ffff1472540 (_ bv0 64)) $x464) (and (distinct fmul_0x7ffff1472ab0 (_ bv0 64)) true))))
 (let (($x731 (= fmul_0x7ffff1472ab0 (bvmul node_0x7ffff1472540 node_0x7ffff1470cc0))))
 (let (($x736 (and $x731 $x735)))
 (let (($x1117 (= node_0x7ffff1472540 fsub_0x7ffff14726e0)))
 (let (($x138 (= node_0x7ffff14720f0 LdMem_0x7ffff1472270)))
 (let (($x58 (= LdMem_0x7ffff1472270 StMem_0x12a66250)))
 (let (($x742 (= fsub_0x7ffff14726e0 (bvsub node_0x7ffff1471490 node_0x7ffff14720f0))))
 (let (($x328 (= LdMem_0x7ffff146ed00 StMem_0x12a5cc60)))
 (let (($x113 (= node_0x7ffff14757a0 (_ bv0 64))))
 (let (($x880 (= node_0x7ffff14757a0 node_0x7ffff1472910)))
 (let (($x115 (= node_0x7ffff14757a0 node_0x7ffff146e380)))
 (let (($x190 (= folt_0x7ffff14705a0 (ite (bvslt node_0x7ffff1469fe0 (_ bv0 64)) (_ bv1 1) (_ bv0 1)))))
 (let (($x704 (= node_0x7ffff1445290 folt_0x7ffff14705a0)))
 (let (($x497 (or $x191 $x115)))
 (let (($x95 (= node_0x7ffff1444e70 fogt_0x7ffff146c340)))
 (let (($x175 (= fogt_0x7ffff146c340 (ite (bvsgt node_0x7ffff1469fe0 (_ bv0 64)) (_ bv1 1) (_ bv0 1)))))
 (let (($x1245 (= node_0x7ffff1469fe0 LdMem_0x7ffff146a160)))
 (let (($x1120 (= LdMem_0x7ffff146a160 StMem_0x12a531d0)))
 (let (($x542 (= node_0x7ffff146e380 fmul_0x7ffff146e520)))
 (let (($x456 (and (= fdiv_0x7ffff146c9f0 (bvsdiv (_ bv1 64) node_0x7ffff1469fe0)) (or $x453 (and (distinct fdiv_0x7ffff146c9f0 (_ bv0 64)) true)))))
 (let (($x1235 (= node_0x7ffff146c880 fdiv_0x7ffff146c9f0)))
 (let (($x711 (or (or (= node_0x7ffff146dfb0 (_ bv0 64)) $x421) (and (distinct fmul_0x7ffff146e520 (_ bv0 64)) true))))
 (let (($x707 (= fmul_0x7ffff146e520 (bvmul node_0x7ffff146dfb0 node_0x7ffff146c880))))
 (let (($x712 (and $x707 $x711)))
 (let (($x1269 (= node_0x7ffff146dfb0 fsub_0x7ffff146e150)))
 (let (($x86 (= node_0x7ffff146dbb0 LdMem_0x7ffff146dd30)))
 (let (($x885 (= StMem_0x12a60190 pcso_node_0x12a5ffb0)))
 (let (($x616 (= LdMem_0x7ffff146dd30 StMem_0x12a60190)))
 (let (($x718 (= fsub_0x7ffff146e150 (bvsub node_0x7ffff146d080 node_0x7ffff146dbb0))))
 (let (($x1163 (= LdMem_0x7ffff146d200 StMem_0x12a5a3d0)))
 (and (or (not (= R0x7ffff1443440 (_ bv1 1))) $x1163) $x1163 (= StMem_0x12a5a3d0 pcso_node_0x12a5a1f0) (= node_0x7ffff146d080 LdMem_0x7ffff146d200) $x718 (or (not (= R0x7ffff1443440 (_ bv1 1))) $x616) $x616 $x885 $x86 $x1269 $x712 $x1235 $x456 $x542 (or (not (= R0x7ffff1443440 (_ bv1 1))) $x1120) $x1120 (= StMem_0x12a531d0 pcso_node_0x12a52ff0) $x1245 $x175 $x95 $x497 (or (not (and $x197 $x191)) $x880) $x704 $x190 (or $x1259 $x113) (or $x115 $x880 $x113) (or (not (= R0x7ffff1443440 (_ bv1 1))) $x328) $x328 (= StMem_0x12a5cc60 pcso_node_0x12a5ca80) (= node_0x7ffff1471490 LdMem_0x7ffff146ed00) $x742 (or (not (= R0x7ffff1443440 (_ bv1 1))) $x58) $x58 (= StMem_0x12a66250 pcso_node_0x12a66070) $x138 $x1117 $x736 (= node_0x7ffff1470cc0 fdiv_0x7ffff1470e30) $x494 $x611 $x693 (or (not (= R0x7ffff1443440 (_ bv1 1))) $x671) $x671 (= StMem_0x12a5a7a0 pcso_node_0x12a5a5f0) (= node_0x7ffff1477350 LdMem_0x7ffff14754c0) $x775 (or (not (= R0x7ffff1443440 (_ bv1 1))) $x1242) $x1242 (= StMem_0x12a6c720 pcso_node_0x12a6c570) $x395 $x1184 $x769 $x978 $x554 $x757 (or (not (= R0x7ffff1443440 (_ bv1 1))) $x1232) $x1232 (= StMem_0x12a55410 pcso_node_0x12a55260) $x365 $x203 $x944 $x139 (or (not (and $x228 $x229)) $x501) $x538 $x224 (or $x1179 $x442) (or $x1124 $x501 $x442) (or (not (= R0x7ffff1443440 (_ bv1 1))) $x269) $x269 (= StMem_0x12a5d030 pcso_node_0x12a5ce80) (= node_0x7ffff147b670 LdMem_0x7ffff1478f60) $x799 (or (not (= R0x7ffff1443440 (_ bv1 1))) $x54) $x54 (= StMem_0x12a727c0 pcso_node_0x12a72610) $x1113 $x136 $x793 (= node_0x7ffff147aea0 fdiv_0x7ffff147b010) $x592 $x1102 $x847 $x688 $x1084 (or (not (= R0x7ffff1443440 (_ bv1 1))) $x1211) $x1211 (= StMem_0x12a5abf0 pcso_node_0x12a5aa40) (= node_0x7ffff14800a0 LdMem_0x7ffff1480240) $x632 (or (not (= R0x7ffff1443440 (_ bv1 1))) $x1183) $x1183 (= StMem_0x12a78d00 pcso_node_0x12a78b50) $x44 $x974 $x626 (or (not (= R0x7ffff1443440 (_ bv1 1))) $x1200) $x1200 (= StMem_0x12a7b930 pcso_node_0x12a7b780) $x1014 $x1246 $x1267 (or (not (and $x253 $x246)) $x121) (or $x892 $x581) (or $x131 $x121 $x581) (or (not (= R0x7ffff1443440 (_ bv1 1))) $x1096) $x1096 $x411 (= node_0x7ffff1485920 LdMem_0x7ffff14829f0) $x665 (or (not (= R0x7ffff1443440 (_ bv1 1))) $x976) $x976 (= StMem_0x12a84650 pcso_node_0x12a844a0) $x883 $x882 $x659 (or (not (= R0x7ffff1443440 (_ bv1 1))) $x112) $x112 (= StMem_0x12a873f0 pcso_node_0x12a87240) $x105 $x1191 $x605 $x151 $x834 $x902 $x839 $x1142 $x855 $x938 (or (not (= R0x7ffff1443440 (_ bv1 1))) $x1099) $x1099 (= StMem_0x12a57c90 pcso_node_0x12a57ae0) $x1013 $x234 $x342744 $x1140 (or $x892 $x291) $x865 $x214 (or (not (and $x253 $x246)) $x291) (or $x76 $x291 $x291) $x91 (= node_0x7ffff1455c50 ine_0x7ffff1491cc0) $x1237 $x828 $x438 $x600 $x820 $x991 (or (not (= R0x7ffff1443440 (_ bv1 1))) $x960) $x960 (= StMem_0x12a63270 pcso_node_0x12a63090) $x1243 $x431 $x901 $x262 $x425 $x49 $x101 (or (not (and $x197 $x191)) $x947) (or $x1259 $x1173) $x988 (or (not (= R0x7ffff1443440 (_ bv1 1))) $x1188) $x1188 (= StMem_0x12a69230 pcso_node_0x12a69050) $x1027 $x474 $x886 $x1254 $x468 $x342730 $x394 (or (not (= R0x7ffff1443440 (_ bv1 1))) $x878) $x878 (= StMem_0x12a6f7e0 pcso_node_0x12a6f630) $x998 $x531 $x925 $x1203 $x525 $x1127 $x910 (or (not (and $x228 $x229)) $x1244) (or $x1179 $x1220) (or $x934 $x1244 $x1220) (or (not (= R0x7ffff1443440 (_ bv1 1))) $x1236) $x1236 (= StMem_0x12a757a0 pcso_node_0x12a755f0) $x435 $x572 $x1208 $x110 $x566 $x800 $x499 $x389 $x982 (or (not (= R0x7ffff1443440 (_ bv1 1))) $x954) $x954 (= StMem_0x12a7ea40 pcso_node_0x12a7e890) $x1044 $x321 $x153 $x109 $x315 (or (not (= R0x7ffff1443440 (_ bv1 1))) $x952) $x952 (= StMem_0x12a81670 pcso_node_0x12a814c0) $x1218 $x1091 $x918 (or (not (and $x253 $x246)) $x42) (or $x892 $x726) (or $x1217 $x42 $x726) (or (not (= R0x7ffff1443440 (_ bv1 1))) $x118) $x118 (= StMem_0x12a8a3d0 pcso_node_0x12a8a220) $x1139 $x360 $x1197 $x1143 $x354 (or (not (= R0x7ffff1443440 (_ bv1 1))) $x975) $x975 (= StMem_0x12a8d000 pcso_node_0x12a8ce50) $x1205 $x846 $x284 $x588 $x279 $x700 $x267 $x46 $x268 $x342733 $x813 $x753 $x458 $x845)))))))))))))))))))))))))))))))))))))))))))))))))))))))))))))))))))))))))))))))))))))))))))))))))))))))))))))))))))))))))))))))))))))))))))))))))))))))))))))))))))))))))))))))))))))))))))))))))))))))))))))))))))))))))))))))))))))))))))))))))))))))))))))
(assert
 (= parg_node_0x107b61b0_CS0x406d048 node_0x12a56ef0))
(assert
 (let (($x888 (= node_0x12a56ef0 LdMem_0x12a56cc0)))
 (let (($x958 (= LdMem_0x12a56cc0 StMem_0x12a527c0)))
 (and (or (not (= R0x7ffff1443440 (_ bv1 1))) $x958) $x958 (= StMem_0x12a527c0 parg_node_0x12a52970) $x888))))
(assert
 (= node_0x107b7d30_CS0x406d048 pcso_node_0x12a57ae0))
(assert
 (= parg_node_0x12a4df10_CS0x406d548 node_0x12a59e80))
(assert
 (let (($x633 (= node_0x12a59e80 LdMem_0x12a59830)))
 (let (($x568 (= LdMem_0x12a59830 StMem_0x12a599a0)))
 (and (or (not (= R0x7ffff1443440 (_ bv1 1))) $x568) $x568 (= StMem_0x12a599a0 parg_node_0x12a59b50) $x633))))
(assert
 (= node_0x12a4fab0_CS0x406d548 pcso_node_0x12a5aa40))
(assert
 (= parg_node_0x107ae730_CS0x4072bc8 node_0x12a77f30))
(assert
 (let (($x1262 (= node_0x12a77f30 LdMem_0x12a77bc0)))
 (let (($x1158 (= StMem_0x12a5f620 parg_node_0x12a5f7d0)))
 (let (($x1193 (= LdMem_0x12a77bc0 StMem_0x12a5f620)))
 (and (or (not (= R0x7ffff1443440 (_ bv1 1))) $x1193) $x1193 $x1158 $x1262)))))
(assert
 (= node_0x107b0280_CS0x4072bc8 pcso_node_0x12a78b50))
(assert
 (= parg_node_0x107b61b0_CS0x4072e38 node_0x12a7ab60))
(assert
 (let (($x758 (= LdMem_0x12a7a7f0 StMem_0x12a527c0)))
 (and (or (not (= R0x7ffff1443440 (_ bv1 1))) $x758) $x758 (= node_0x12a7ab60 LdMem_0x12a7a7f0))))
(assert
 (= node_0x107b7d30_CS0x4072e38 pcso_node_0x12a7b780))
(assert
 (= parg_node_0x12a497d0_CS0x406d7b8 node_0x12a5c710))
(assert
 (let (($x873 (= node_0x12a5c710 LdMem_0x12a5c060)))
 (let (($x1168 (= LdMem_0x12a5c060 StMem_0x12a5c1d0)))
 (and (or (not (= R0x7ffff1443440 (_ bv1 1))) $x1168) $x1168 (= StMem_0x12a5c1d0 parg_node_0x12a5c380) $x873))))
(assert
 (= node_0x12a4b3d0_CS0x406d7b8 pcso_node_0x12a5d2d0))
(assert
 (= parg_node_0x107ae730_CS0x4074038 node_0x12a83880))
(assert
 (let (($x1131 (= node_0x12a83880 LdMem_0x12a83510)))
 (let (($x60 (= LdMem_0x12a83510 StMem_0x12a5f620)))
 (and (or (not (= R0x7ffff1443440 (_ bv1 1))) $x60) $x60 $x1131))))
(assert
 (= node_0x107b0280_CS0x4074038 pcso_node_0x12a844a0))
(assert
 (and (distinct carg_node_0x7ffff1443e00 (_ bv0 64)) true))
(maximize StMem_0x12a5c1d0)
(maximize fdiv_0x7ffff1470e30)
(maximize LdMem_0x7ffff147c340)
(minimize pcso_node_0x12a72610)
(maximize node_0x7ffff14879c0)
(minimize node_0x7ffff148a5e0)
(maximize pcso_node_0x12a57ae0)
(maximize StMem_0x12a7ea40)
(minimize node_0x7ffff147ed70)
(maximize node_0x7ffff1447850)
(minimize node_0x7ffff14785d0)
(minimize node_0x7ffff1473c80)
(maximize node_0x7ffff146ab20)
(maximize or_0x7ffff148e6b0)
(maximize pcso_node_0x12a5a1f0)
(maximize node_0x7ffff146e380)
(minimize node_0x7ffff147e550)
(minimize pcso_node_0x12a66070)
(maximize LdMem_0x7ffff1473e00)
(minimize carg_node_0x7ffff1443b00)
(maximize parg_node_0x107b61b0_CS0x406d048)
(maximize pcso_node_0x12a52ff0)
(minimize fogt_0x7ffff148bd60)
(maximize node_0x7ffff148aef0)
(maximize node_0x7ffff146ff40)
(maximize folt_0x7ffff1484c50)
(minimize node_0x7ffff148ac00)
(maximize parg_node_0x12a5c380)
(minimize ieq_0x7ffff1490bc0)
(minimize node_0x7ffff147f140)
(minimize StMem_0x12a55410)
(minimize node_0x7ffff14720f0)
(maximize node_0x12a59e80)
(minimize node_0x7ffff1488d80)
(minimize LdMem_0x12a83510)
(maximize StMem_0x12a78d00)
(minimize node_0x7ffff148dcd0)
(maximize node_0x7ffff1483840)
(minimize LdMem_0x12a5c060)
(minimize node_0x7ffff147e9a0)
(maximize pcso_node_0x12a814c0)
(maximize select_0x7ffff148da30)
(maximize LdMem_0x7ffff146aca0)
(maximize node_0x7ffff147d9b0)
(minimize node_0x7ffff1449840)
(maximize node_0x7ffff147ed70)
(minimize node_0x7ffff14664f0)
(minimize LdMem_0x7ffff1478f60)
(maximize fogt_0x7ffff148e360)
(maximize StMem_0x12a5cc60)
(minimize StMem_0x12a6c720)
(minimize carg_node_0x7ffff1443e00)
(maximize node_0x7ffff147f140)
(maximize fogt_0x7ffff146c340)
(maximize node_0x107b0280_CS0x4072bc8)
(minimize parg_node_0x12a52970)
(maximize node_0x7ffff144e270)
(maximize node_0x7ffff14833f0)
(maximize node_0x7ffff14763a0)
(maximize folt_0x7ffff148d520)
(minimize StMem_0x12a599a0)
(maximize pcso_node_0x12a5aa40)
(maximize StMem_0x12a60190)
(maximize StMem_0x12a5abf0)
(minimize node_0x7ffff1482850)
(minimize node_0x7ffff148a910)
(maximize pcso_node_0x12a69050)
(maximize LdMem_0x12a5c060)
(minimize node_0x7ffff146dbb0)
(minimize fsub_0x7ffff1486a60)
(maximize node_0x7ffff146dbb0)
(minimize LdMem_0x7ffff146b850)
(minimize LdMem_0x7ffff1489e50)
(minimize folt_0x7ffff14705a0)
(maximize node_0x12a83880)
(check-sat)
(get-objectives)
